samf/hales/sun/fake1a.in
32
0.001

