samf/hales/sun/fake1a.out
Welcome to sphere packing routines, relation testing division.
Welcome to Fake anchor 1a
Enter depth bound:  Enter slop:  Depth bound = 32
slop = 0.001
Starting time:  	Thu Jun  4 11:43:07 1998

Starting case 1:
2.569999999999999840	2.828427124746190290
2.000000000000000000	2.510000000000000230
2.000000000000000000	2.510000000000000230
cellcount    =        184819785		maxdepth = 13
partialtries =         24424266
impossible   =                0		domaincut    =                0
acutecut     =                0		verifycount  =        155235287
partialcount =          6482025		diff         =         23102473
Verification succeeded.

Done.
Ending time:    	Thu Jun  4 21:13:34 1998

Elapsed time: 34227 seconds
diff = 1193.36		5399.82 cells per second


